(set-info :smt-lib-version 2.6)
(set-logic QF_LRA)
(set-info :source |
SAL benchmark suite.  Created at SRI by Bruno Dutertre, John Rushby, Maria
Sorea, and Leonardo de Moura.  Contact demoura@csl.sri.com for more
information.

This benchmark was automatically translated into SMT-LIB format from
CVC format using CVC Lite
|)
(set-info :category "industrial")
(set-info :status unsat)
(declare-fun x_0 () Bool)
(declare-fun x_1 () Bool)
(declare-fun x_2 () Bool)
(declare-fun x_3 () Bool)
(declare-fun x_4 () Bool)
(declare-fun x_5 () Bool)
(declare-fun x_6 () Real)
(declare-fun x_7 () Real)
(declare-fun x_8 () Real)
(declare-fun x_9 () Real)
(declare-fun x_10 () Real)
(declare-fun x_11 () Real)
(declare-fun x_12 () Real)
(declare-fun x_13 () Real)
(declare-fun x_14 () Real)
(declare-fun x_15 () Bool)
(declare-fun x_16 () Bool)
(declare-fun x_17 () Real)
(declare-fun x_18 () Bool)
(declare-fun x_19 () Bool)
(declare-fun x_20 () Bool)
(declare-fun x_21 () Bool)
(declare-fun x_22 () Bool)
(declare-fun x_23 () Bool)
(declare-fun x_24 () Bool)
(declare-fun x_25 () Real)
(declare-fun x_26 () Bool)
(declare-fun x_27 () Bool)
(declare-fun x_28 () Real)
(declare-fun x_29 () Real)
(declare-fun x_30 () Real)
(declare-fun x_31 () Bool)
(declare-fun x_32 () Bool)
(declare-fun x_33 () Real)
(declare-fun x_34 () Bool)
(declare-fun x_35 () Bool)
(declare-fun x_36 () Real)
(declare-fun x_37 () Real)
(declare-fun x_38 () Bool)
(declare-fun x_39 () Bool)
(declare-fun x_40 () Real)
(declare-fun x_41 () Bool)
(declare-fun x_42 () Bool)
(declare-fun x_43 () Bool)
(declare-fun x_44 () Bool)
(declare-fun x_45 () Bool)
(declare-fun x_46 () Bool)
(declare-fun x_47 () Real)
(declare-fun x_48 () Bool)
(declare-fun x_49 () Bool)
(declare-fun x_50 () Real)
(declare-fun x_51 () Real)
(declare-fun x_52 () Real)
(declare-fun x_53 () Real)
(declare-fun x_54 () Real)
(declare-fun x_55 () Real)
(declare-fun x_56 () Bool)
(declare-fun x_57 () Bool)
(declare-fun x_58 () Real)
(declare-fun x_59 () Bool)
(declare-fun x_60 () Bool)
(declare-fun x_61 () Bool)
(declare-fun x_62 () Bool)
(declare-fun x_63 () Bool)
(declare-fun x_64 () Bool)
(declare-fun x_65 () Real)
(declare-fun x_66 () Bool)
(declare-fun x_67 () Bool)
(declare-fun x_68 () Real)
(declare-fun x_69 () Real)
(declare-fun x_70 () Real)
(declare-fun x_71 () Real)
(declare-fun x_72 () Real)
(declare-fun x_73 () Real)
(declare-fun x_74 () Bool)
(declare-fun x_75 () Bool)
(declare-fun x_76 () Real)
(declare-fun x_77 () Bool)
(declare-fun x_78 () Bool)
(declare-fun x_79 () Bool)
(declare-fun x_80 () Bool)
(declare-fun x_81 () Bool)
(declare-fun x_82 () Bool)
(declare-fun x_83 () Real)
(declare-fun x_84 () Bool)
(declare-fun x_85 () Bool)
(declare-fun x_86 () Real)
(declare-fun x_87 () Real)
(declare-fun x_88 () Real)
(declare-fun x_89 () Real)
(declare-fun x_90 () Real)
(declare-fun x_91 () Real)
(declare-fun x_92 () Bool)
(declare-fun x_93 () Bool)
(declare-fun x_94 () Real)
(declare-fun x_95 () Bool)
(declare-fun x_96 () Bool)
(declare-fun x_97 () Bool)
(declare-fun x_98 () Bool)
(declare-fun x_99 () Bool)
(declare-fun x_100 () Bool)
(declare-fun x_101 () Real)
(declare-fun x_102 () Bool)
(declare-fun x_103 () Bool)
(declare-fun x_104 () Real)
(declare-fun x_105 () Real)
(declare-fun x_106 () Real)
(declare-fun x_107 () Real)
(declare-fun x_108 () Real)
(declare-fun x_109 () Real)
(declare-fun x_110 () Bool)
(declare-fun x_111 () Bool)
(declare-fun x_112 () Real)
(declare-fun x_113 () Bool)
(declare-fun x_114 () Bool)
(declare-fun x_115 () Bool)
(declare-fun x_116 () Bool)
(declare-fun x_117 () Bool)
(declare-fun x_118 () Bool)
(declare-fun x_119 () Real)
(declare-fun x_120 () Bool)
(declare-fun x_121 () Bool)
(declare-fun x_122 () Real)
(declare-fun x_123 () Real)
(declare-fun x_124 () Real)
(declare-fun x_125 () Real)
(declare-fun x_126 () Real)
(assert (let ((?v_32 (+ x_94 x_11)) (?v_23 (+ x_104 x_11)) (?v_26 (= x_109 x_91)) (?v_2 (not x_110))) (let ((?v_4 (and ?v_2 x_111)) (?v_31 (= x_112 x_94)) (?v_24 (and (= x_113 x_95) (= x_114 x_96))) (?v_9 (= x_105 1)) (?v_33 (and (= x_115 x_97) (= x_116 x_98))) (?v_12 (and (= x_117 x_99) (= x_118 x_100))) (?v_5 (= x_119 x_101)) (?v_14 (not x_120))) (let ((?v_16 (and ?v_14 x_121)) (?v_17 (= x_122 0)) (?v_21 (= x_122 x_104)) (?v_0 (= x_105 0)) (?v_11 (+ x_101 x_11)) (?v_28 (= x_112 0)) (?v_60 (+ x_76 x_10)) (?v_53 (+ x_86 x_10)) (?v_56 (= x_91 x_73)) (?v_36 (not x_92))) (let ((?v_38 (and ?v_36 x_93)) (?v_59 (= x_94 x_76)) (?v_54 (and (= x_95 x_77) (= x_96 x_78))) (?v_41 (= x_87 1)) (?v_61 (and (= x_97 x_79) (= x_98 x_80))) (?v_44 (and (= x_99 x_81) (= x_100 x_82))) (?v_39 (= x_101 x_83)) (?v_46 (not x_102))) (let ((?v_48 (and ?v_46 x_103)) (?v_49 (= x_104 0)) (?v_51 (= x_104 x_86)) (?v_34 (= x_87 0)) (?v_43 (+ x_83 x_10)) (?v_58 (= x_94 0)) (?v_88 (+ x_58 x_9)) (?v_81 (+ x_68 x_9)) (?v_84 (= x_73 x_55)) (?v_64 (not x_74))) (let ((?v_66 (and ?v_64 x_75)) (?v_87 (= x_76 x_58)) (?v_82 (and (= x_77 x_59) (= x_78 x_60))) (?v_69 (= x_69 1)) (?v_89 (and (= x_79 x_61) (= x_80 x_62))) (?v_72 (and (= x_81 x_63) (= x_82 x_64))) (?v_67 (= x_83 x_65)) (?v_74 (not x_84))) (let ((?v_76 (and ?v_74 x_85)) (?v_77 (= x_86 0)) (?v_79 (= x_86 x_68)) (?v_62 (= x_69 0)) (?v_71 (+ x_65 x_9)) (?v_86 (= x_76 0)) (?v_116 (+ x_40 x_8)) (?v_109 (+ x_50 x_8)) (?v_112 (= x_55 x_37)) (?v_92 (not x_56))) (let ((?v_94 (and ?v_92 x_57)) (?v_115 (= x_58 x_40)) (?v_110 (and (= x_59 x_41) (= x_60 x_42))) (?v_97 (= x_51 1)) (?v_117 (and (= x_61 x_43) (= x_62 x_44))) (?v_100 (and (= x_63 x_45) (= x_64 x_46))) (?v_95 (= x_65 x_47)) (?v_102 (not x_66))) (let ((?v_104 (and ?v_102 x_67)) (?v_105 (= x_68 0)) (?v_107 (= x_68 x_50)) (?v_90 (= x_51 0)) (?v_99 (+ x_47 x_8)) (?v_114 (= x_58 0)) (?v_144 (+ x_17 x_7)) (?v_137 (+ x_28 x_7)) (?v_140 (= x_37 x_13)) (?v_120 (not x_38))) (let ((?v_122 (and ?v_120 x_39)) (?v_143 (= x_40 x_17)) (?v_138 (and (= x_41 x_18) (= x_42 x_19))) (?v_125 (= x_29 1)) (?v_145 (and (= x_43 x_21) (= x_44 x_22))) (?v_128 (and (= x_45 x_23) (= x_46 x_24))) (?v_123 (= x_47 x_25)) (?v_130 (not x_48))) (let ((?v_132 (and ?v_130 x_49)) (?v_133 (= x_50 0)) (?v_135 (= x_50 x_28)) (?v_118 (= x_29 0)) (?v_127 (+ x_25 x_7)) (?v_142 (= x_40 0)) (?v_154 (+ 0 x_6)) (?v_166 (= x_13 x_14)) (?v_149 (not x_15))) (let ((?v_151 (and ?v_149 x_16)) (?v_167 (= x_17 0)) (?v_163 (and (= x_18 x_2) (= x_19 x_3))) (?v_168 (and (= x_21 x_4) (= x_22 x_5))) (?v_155 (and (= x_23 x_0) (= x_24 x_1))) (?v_150 (= x_25 0)) (?v_158 (not x_26))) (let ((?v_160 (and ?v_158 x_27)) (?v_159 (= x_28 0)) (?v_148 (not x_20)) (?v_146 (not x_0)) (?v_147 (not x_1)) (?v_156 (not x_2)) (?v_157 (not x_3)) (?v_164 (not x_4)) (?v_165 (not x_5)) (?v_3 (not x_99)) (?v_1 (not x_100)) (?v_6 (not x_111)) (?v_8 (not x_118)) (?v_7 (not x_117)) (?v_15 (not x_95)) (?v_13 (not x_96)) (?v_20 (not x_114)) (?v_18 (not x_121)) (?v_19 (not x_113)) (?v_27 (not x_97)) (?v_25 (not x_98)) (?v_30 (not x_116)) (?v_29 (not x_115)) (?v_37 (not x_81)) (?v_35 (not x_82)) (?v_40 (not x_93)) (?v_47 (not x_77)) (?v_45 (not x_78)) (?v_50 (not x_103)) (?v_57 (not x_79)) (?v_55 (not x_80)) (?v_65 (not x_63)) (?v_63 (not x_64)) (?v_68 (not x_75)) (?v_75 (not x_59)) (?v_73 (not x_60)) (?v_78 (not x_85)) (?v_85 (not x_61)) (?v_83 (not x_62)) (?v_93 (not x_45)) (?v_91 (not x_46)) (?v_96 (not x_57)) (?v_103 (not x_41)) (?v_101 (not x_42)) (?v_106 (not x_67)) (?v_113 (not x_43)) (?v_111 (not x_44)) (?v_121 (not x_23)) (?v_119 (not x_24)) (?v_124 (not x_39)) (?v_131 (not x_18)) (?v_129 (not x_19)) (?v_134 (not x_49)) (?v_141 (not x_21)) (?v_139 (not x_22)) (?v_152 (not x_16)) (?v_161 (not x_27)) (?v_10 (<= ?v_11 5)) (?v_22 (<= ?v_23 1)) (?v_42 (<= ?v_43 5)) (?v_52 (<= ?v_53 1)) (?v_70 (<= ?v_71 5)) (?v_80 (<= ?v_81 1)) (?v_98 (<= ?v_99 5)) (?v_108 (<= ?v_109 1)) (?v_126 (<= ?v_127 5)) (?v_136 (<= ?v_137 1)) (?v_153 (<= ?v_154 5)) (?v_162 (<= ?v_154 1))) (and (and (and (and (and (and (and (and (and (and (and (and (and (and (and (and (and (and (and (and (and (and (and (and (and (and (and (and (and (and (and (and (and (and (and (and (and (and (and (and (and (and (and (and (and (and (and (and (and (and (and (and (and (and (and (and (and (and (and (and (<= x_123 1) (>= x_123 0)) (<= x_105 1)) (>= x_105 0)) (<= x_87 1)) (>= x_87 0)) (<= x_69 1)) (>= x_69 0)) (<= x_51 1)) (>= x_51 0)) (<= x_29 1)) (>= x_29 0)) (and ?v_146 ?v_147)) (and ?v_156 ?v_157)) (and ?v_164 ?v_165)) (not (< x_12 0))) (not (< x_11 0))) (not (< x_10 0))) (not (< x_9 0))) (not (< x_8 0))) (not (< x_7 0))) (not (< x_6 0))) (= x_123 (ite ?v_9 0 1))) (or (or (or (or (or (and (and (and (and (and (and (and (and (= x_124 0) ?v_0) ?v_3) ?v_1) ?v_2) ?v_6) x_117) ?v_8) (= x_119 0)) (and (and (and (and (and (and (and (and (= x_124 1) ?v_0) x_99) ?v_1) (not (<= x_101 2))) ?v_4) ?v_7) x_118) ?v_5)) (and (and (and (and (and (and (and (= x_124 2) ?v_0) ?v_3) x_100) ?v_4) x_117) x_118) ?v_5)) (and (and (and (and (and (and (and (and (= x_124 3) ?v_0) x_99) x_100) x_110) ?v_6) ?v_7) ?v_8) ?v_5)) (and (and (and (and (and (and (and (and (= x_124 4) ?v_9) (or (or ?v_3 x_100) ?v_10)) (or (or x_99 ?v_1) ?v_10)) (or (or ?v_3 ?v_1) ?v_10)) (= x_119 ?v_11)) (= x_110 x_92)) (= x_111 x_93)) ?v_12)) (and (and (and (and (= x_124 5) ?v_0) ?v_5) ?v_4) ?v_12))) (or (or (or (or (or (and (and (and (and (and (and (and (and (and (= x_125 0) ?v_0) ?v_15) ?v_13) ?v_2) ?v_6) ?v_16) x_113) ?v_20) ?v_17) (and (and (and (and (and (and (and (and (and (= x_125 1) ?v_0) x_95) ?v_13) (= x_104 1)) ?v_14) ?v_18) ?v_19) x_114) ?v_21)) (and (and (and (and (and (and (and (and (and (= x_125 2) ?v_0) ?v_15) x_96) x_110) ?v_6) ?v_16) x_113) x_114) ?v_17)) (and (and (and (and (and (and (and (and (= x_125 3) ?v_0) x_95) x_96) x_120) ?v_18) ?v_19) ?v_20) ?v_21)) (and (and (and (and (and (and (and (= x_125 4) ?v_9) (or (or ?v_15 x_96) ?v_22)) (or (or ?v_15 ?v_13) ?v_22)) (= x_122 ?v_23)) (= x_120 x_102)) (= x_121 x_103)) ?v_24)) (and (and (and (and (and (and (= x_125 5) ?v_0) ?v_2) x_111) ?v_21) ?v_16) ?v_24))) (or (or (or (or (or (and (and (and (and (and (and (and (and (and (= x_126 0) ?v_0) ?v_27) ?v_25) ?v_14) ?v_18) x_115) ?v_30) ?v_28) ?v_26) (and (and (and (and (and (and (and (= x_126 1) ?v_0) x_97) ?v_25) ?v_29) x_116) ?v_26) ?v_31)) (and (and (and (and (and (and (and (and (and (= x_126 2) ?v_0) ?v_27) x_98) x_120) ?v_18) x_115) x_116) ?v_28) ?v_26)) (and (and (and (and (and (and (and (and (= x_126 3) ?v_0) x_97) x_98) (not (< x_94 1))) ?v_29) ?v_30) ?v_26) ?v_31)) (and (and (and (and (and (and (= x_126 4) ?v_9) (or (or ?v_27 x_98) (<= ?v_32 1))) (or (or ?v_27 ?v_25) (<= ?v_32 2))) (= x_112 ?v_32)) ?v_33) ?v_26)) (and (and (and (and (and (and (= x_126 5) ?v_0) ?v_14) x_121) ?v_31) ?v_33) ?v_26))) (= x_105 (ite ?v_41 0 1))) (or (or (or (or (or (and (and (and (and (and (and (and (and (= x_106 0) ?v_34) ?v_37) ?v_35) ?v_36) ?v_40) x_99) ?v_1) (= x_101 0)) (and (and (and (and (and (and (and (and (= x_106 1) ?v_34) x_81) ?v_35) (not (<= x_83 2))) ?v_38) ?v_3) x_100) ?v_39)) (and (and (and (and (and (and (and (= x_106 2) ?v_34) ?v_37) x_82) ?v_38) x_99) x_100) ?v_39)) (and (and (and (and (and (and (and (and (= x_106 3) ?v_34) x_81) x_82) x_92) ?v_40) ?v_3) ?v_1) ?v_39)) (and (and (and (and (and (and (and (and (= x_106 4) ?v_41) (or (or ?v_37 x_82) ?v_42)) (or (or x_81 ?v_35) ?v_42)) (or (or ?v_37 ?v_35) ?v_42)) (= x_101 ?v_43)) (= x_92 x_74)) (= x_93 x_75)) ?v_44)) (and (and (and (and (= x_106 5) ?v_34) ?v_39) ?v_38) ?v_44))) (or (or (or (or (or (and (and (and (and (and (and (and (and (and (= x_107 0) ?v_34) ?v_47) ?v_45) ?v_36) ?v_40) ?v_48) x_95) ?v_13) ?v_49) (and (and (and (and (and (and (and (and (and (= x_107 1) ?v_34) x_77) ?v_45) (= x_86 1)) ?v_46) ?v_50) ?v_15) x_96) ?v_51)) (and (and (and (and (and (and (and (and (and (= x_107 2) ?v_34) ?v_47) x_78) x_92) ?v_40) ?v_48) x_95) x_96) ?v_49)) (and (and (and (and (and (and (and (and (= x_107 3) ?v_34) x_77) x_78) x_102) ?v_50) ?v_15) ?v_13) ?v_51)) (and (and (and (and (and (and (and (= x_107 4) ?v_41) (or (or ?v_47 x_78) ?v_52)) (or (or ?v_47 ?v_45) ?v_52)) (= x_104 ?v_53)) (= x_102 x_84)) (= x_103 x_85)) ?v_54)) (and (and (and (and (and (and (= x_107 5) ?v_34) ?v_36) x_93) ?v_51) ?v_48) ?v_54))) (or (or (or (or (or (and (and (and (and (and (and (and (and (and (= x_108 0) ?v_34) ?v_57) ?v_55) ?v_46) ?v_50) x_97) ?v_25) ?v_58) ?v_56) (and (and (and (and (and (and (and (= x_108 1) ?v_34) x_79) ?v_55) ?v_27) x_98) ?v_56) ?v_59)) (and (and (and (and (and (and (and (and (and (= x_108 2) ?v_34) ?v_57) x_80) x_102) ?v_50) x_97) x_98) ?v_58) ?v_56)) (and (and (and (and (and (and (and (and (= x_108 3) ?v_34) x_79) x_80) (not (< x_76 1))) ?v_27) ?v_25) ?v_56) ?v_59)) (and (and (and (and (and (and (= x_108 4) ?v_41) (or (or ?v_57 x_80) (<= ?v_60 1))) (or (or ?v_57 ?v_55) (<= ?v_60 2))) (= x_94 ?v_60)) ?v_61) ?v_56)) (and (and (and (and (and (and (= x_108 5) ?v_34) ?v_46) x_103) ?v_59) ?v_61) ?v_56))) (= x_87 (ite ?v_69 0 1))) (or (or (or (or (or (and (and (and (and (and (and (and (and (= x_88 0) ?v_62) ?v_65) ?v_63) ?v_64) ?v_68) x_81) ?v_35) (= x_83 0)) (and (and (and (and (and (and (and (and (= x_88 1) ?v_62) x_63) ?v_63) (not (<= x_65 2))) ?v_66) ?v_37) x_82) ?v_67)) (and (and (and (and (and (and (and (= x_88 2) ?v_62) ?v_65) x_64) ?v_66) x_81) x_82) ?v_67)) (and (and (and (and (and (and (and (and (= x_88 3) ?v_62) x_63) x_64) x_74) ?v_68) ?v_37) ?v_35) ?v_67)) (and (and (and (and (and (and (and (and (= x_88 4) ?v_69) (or (or ?v_65 x_64) ?v_70)) (or (or x_63 ?v_63) ?v_70)) (or (or ?v_65 ?v_63) ?v_70)) (= x_83 ?v_71)) (= x_74 x_56)) (= x_75 x_57)) ?v_72)) (and (and (and (and (= x_88 5) ?v_62) ?v_67) ?v_66) ?v_72))) (or (or (or (or (or (and (and (and (and (and (and (and (and (and (= x_89 0) ?v_62) ?v_75) ?v_73) ?v_64) ?v_68) ?v_76) x_77) ?v_45) ?v_77) (and (and (and (and (and (and (and (and (and (= x_89 1) ?v_62) x_59) ?v_73) (= x_68 1)) ?v_74) ?v_78) ?v_47) x_78) ?v_79)) (and (and (and (and (and (and (and (and (and (= x_89 2) ?v_62) ?v_75) x_60) x_74) ?v_68) ?v_76) x_77) x_78) ?v_77)) (and (and (and (and (and (and (and (and (= x_89 3) ?v_62) x_59) x_60) x_84) ?v_78) ?v_47) ?v_45) ?v_79)) (and (and (and (and (and (and (and (= x_89 4) ?v_69) (or (or ?v_75 x_60) ?v_80)) (or (or ?v_75 ?v_73) ?v_80)) (= x_86 ?v_81)) (= x_84 x_66)) (= x_85 x_67)) ?v_82)) (and (and (and (and (and (and (= x_89 5) ?v_62) ?v_64) x_75) ?v_79) ?v_76) ?v_82))) (or (or (or (or (or (and (and (and (and (and (and (and (and (and (= x_90 0) ?v_62) ?v_85) ?v_83) ?v_74) ?v_78) x_79) ?v_55) ?v_86) ?v_84) (and (and (and (and (and (and (and (= x_90 1) ?v_62) x_61) ?v_83) ?v_57) x_80) ?v_84) ?v_87)) (and (and (and (and (and (and (and (and (and (= x_90 2) ?v_62) ?v_85) x_62) x_84) ?v_78) x_79) x_80) ?v_86) ?v_84)) (and (and (and (and (and (and (and (and (= x_90 3) ?v_62) x_61) x_62) (not (< x_58 1))) ?v_57) ?v_55) ?v_84) ?v_87)) (and (and (and (and (and (and (= x_90 4) ?v_69) (or (or ?v_85 x_62) (<= ?v_88 1))) (or (or ?v_85 ?v_83) (<= ?v_88 2))) (= x_76 ?v_88)) ?v_89) ?v_84)) (and (and (and (and (and (and (= x_90 5) ?v_62) ?v_74) x_85) ?v_87) ?v_89) ?v_84))) (= x_69 (ite ?v_97 0 1))) (or (or (or (or (or (and (and (and (and (and (and (and (and (= x_70 0) ?v_90) ?v_93) ?v_91) ?v_92) ?v_96) x_63) ?v_63) (= x_65 0)) (and (and (and (and (and (and (and (and (= x_70 1) ?v_90) x_45) ?v_91) (not (<= x_47 2))) ?v_94) ?v_65) x_64) ?v_95)) (and (and (and (and (and (and (and (= x_70 2) ?v_90) ?v_93) x_46) ?v_94) x_63) x_64) ?v_95)) (and (and (and (and (and (and (and (and (= x_70 3) ?v_90) x_45) x_46) x_56) ?v_96) ?v_65) ?v_63) ?v_95)) (and (and (and (and (and (and (and (and (= x_70 4) ?v_97) (or (or ?v_93 x_46) ?v_98)) (or (or x_45 ?v_91) ?v_98)) (or (or ?v_93 ?v_91) ?v_98)) (= x_65 ?v_99)) (= x_56 x_38)) (= x_57 x_39)) ?v_100)) (and (and (and (and (= x_70 5) ?v_90) ?v_95) ?v_94) ?v_100))) (or (or (or (or (or (and (and (and (and (and (and (and (and (and (= x_71 0) ?v_90) ?v_103) ?v_101) ?v_92) ?v_96) ?v_104) x_59) ?v_73) ?v_105) (and (and (and (and (and (and (and (and (and (= x_71 1) ?v_90) x_41) ?v_101) (= x_50 1)) ?v_102) ?v_106) ?v_75) x_60) ?v_107)) (and (and (and (and (and (and (and (and (and (= x_71 2) ?v_90) ?v_103) x_42) x_56) ?v_96) ?v_104) x_59) x_60) ?v_105)) (and (and (and (and (and (and (and (and (= x_71 3) ?v_90) x_41) x_42) x_66) ?v_106) ?v_75) ?v_73) ?v_107)) (and (and (and (and (and (and (and (= x_71 4) ?v_97) (or (or ?v_103 x_42) ?v_108)) (or (or ?v_103 ?v_101) ?v_108)) (= x_68 ?v_109)) (= x_66 x_48)) (= x_67 x_49)) ?v_110)) (and (and (and (and (and (and (= x_71 5) ?v_90) ?v_92) x_57) ?v_107) ?v_104) ?v_110))) (or (or (or (or (or (and (and (and (and (and (and (and (and (and (= x_72 0) ?v_90) ?v_113) ?v_111) ?v_102) ?v_106) x_61) ?v_83) ?v_114) ?v_112) (and (and (and (and (and (and (and (= x_72 1) ?v_90) x_43) ?v_111) ?v_85) x_62) ?v_112) ?v_115)) (and (and (and (and (and (and (and (and (and (= x_72 2) ?v_90) ?v_113) x_44) x_66) ?v_106) x_61) x_62) ?v_114) ?v_112)) (and (and (and (and (and (and (and (and (= x_72 3) ?v_90) x_43) x_44) (not (< x_40 1))) ?v_85) ?v_83) ?v_112) ?v_115)) (and (and (and (and (and (and (= x_72 4) ?v_97) (or (or ?v_113 x_44) (<= ?v_116 1))) (or (or ?v_113 ?v_111) (<= ?v_116 2))) (= x_58 ?v_116)) ?v_117) ?v_112)) (and (and (and (and (and (and (= x_72 5) ?v_90) ?v_102) x_67) ?v_115) ?v_117) ?v_112))) (= x_51 (ite ?v_125 0 1))) (or (or (or (or (or (and (and (and (and (and (and (and (and (= x_52 0) ?v_118) ?v_121) ?v_119) ?v_120) ?v_124) x_45) ?v_91) (= x_47 0)) (and (and (and (and (and (and (and (and (= x_52 1) ?v_118) x_23) ?v_119) (not (<= x_25 2))) ?v_122) ?v_93) x_46) ?v_123)) (and (and (and (and (and (and (and (= x_52 2) ?v_118) ?v_121) x_24) ?v_122) x_45) x_46) ?v_123)) (and (and (and (and (and (and (and (and (= x_52 3) ?v_118) x_23) x_24) x_38) ?v_124) ?v_93) ?v_91) ?v_123)) (and (and (and (and (and (and (and (and (= x_52 4) ?v_125) (or (or ?v_121 x_24) ?v_126)) (or (or x_23 ?v_119) ?v_126)) (or (or ?v_121 ?v_119) ?v_126)) (= x_47 ?v_127)) (= x_38 x_15)) (= x_39 x_16)) ?v_128)) (and (and (and (and (= x_52 5) ?v_118) ?v_123) ?v_122) ?v_128))) (or (or (or (or (or (and (and (and (and (and (and (and (and (and (= x_53 0) ?v_118) ?v_131) ?v_129) ?v_120) ?v_124) ?v_132) x_41) ?v_101) ?v_133) (and (and (and (and (and (and (and (and (and (= x_53 1) ?v_118) x_18) ?v_129) (= x_28 1)) ?v_130) ?v_134) ?v_103) x_42) ?v_135)) (and (and (and (and (and (and (and (and (and (= x_53 2) ?v_118) ?v_131) x_19) x_38) ?v_124) ?v_132) x_41) x_42) ?v_133)) (and (and (and (and (and (and (and (and (= x_53 3) ?v_118) x_18) x_19) x_48) ?v_134) ?v_103) ?v_101) ?v_135)) (and (and (and (and (and (and (and (= x_53 4) ?v_125) (or (or ?v_131 x_19) ?v_136)) (or (or ?v_131 ?v_129) ?v_136)) (= x_50 ?v_137)) (= x_48 x_26)) (= x_49 x_27)) ?v_138)) (and (and (and (and (and (and (= x_53 5) ?v_118) ?v_120) x_39) ?v_135) ?v_132) ?v_138))) (or (or (or (or (or (and (and (and (and (and (and (and (and (and (= x_54 0) ?v_118) ?v_141) ?v_139) ?v_130) ?v_134) x_43) ?v_111) ?v_142) ?v_140) (and (and (and (and (and (and (and (= x_54 1) ?v_118) x_21) ?v_139) ?v_113) x_44) ?v_140) ?v_143)) (and (and (and (and (and (and (and (and (and (= x_54 2) ?v_118) ?v_141) x_22) x_48) ?v_134) x_43) x_44) ?v_142) ?v_140)) (and (and (and (and (and (and (and (and (= x_54 3) ?v_118) x_21) x_22) (not (< x_17 1))) ?v_113) ?v_111) ?v_140) ?v_143)) (and (and (and (and (and (and (= x_54 4) ?v_125) (or (or ?v_141 x_22) (<= ?v_144 1))) (or (or ?v_141 ?v_139) (<= ?v_144 2))) (= x_40 ?v_144)) ?v_145) ?v_140)) (and (and (and (and (and (and (= x_54 5) ?v_118) ?v_130) x_49) ?v_143) ?v_145) ?v_140))) (= x_29 (ite x_20 0 1))) (or (or (or (or (or (and (and (and (and (and (and (and (and (= x_30 0) ?v_148) ?v_146) ?v_147) ?v_149) ?v_152) x_23) ?v_119) ?v_150) (and (and (and (and (and (and (and (and (= x_30 1) ?v_148) x_0) ?v_147) (not (<= 0 2))) ?v_151) ?v_121) x_24) ?v_150)) (and (and (and (and (and (and (and (= x_30 2) ?v_148) ?v_146) x_1) ?v_151) x_23) x_24) ?v_150)) (and (and (and (and (and (and (and (and (= x_30 3) ?v_148) x_0) x_1) x_15) ?v_152) ?v_121) ?v_119) ?v_150)) (and (and (and (and (and (and (and (and (= x_30 4) x_20) (or (or ?v_146 x_1) ?v_153)) (or (or x_0 ?v_147) ?v_153)) (or (or ?v_146 ?v_147) ?v_153)) (= x_25 ?v_154)) (= x_15 x_31)) (= x_16 x_32)) ?v_155)) (and (and (and (and (= x_30 5) ?v_148) ?v_150) ?v_151) ?v_155))) (or (or (or (or (or (and (and (and (and (and (and (and (and (and (= x_33 0) ?v_148) ?v_156) ?v_157) ?v_149) ?v_152) ?v_160) x_18) ?v_129) ?v_159) (and (and (and (and (and (and (and (and (and (= x_33 1) ?v_148) x_2) ?v_157) (= 0 1)) ?v_158) ?v_161) ?v_131) x_19) ?v_159)) (and (and (and (and (and (and (and (and (and (= x_33 2) ?v_148) ?v_156) x_3) x_15) ?v_152) ?v_160) x_18) x_19) ?v_159)) (and (and (and (and (and (and (and (and (= x_33 3) ?v_148) x_2) x_3) x_26) ?v_161) ?v_131) ?v_129) ?v_159)) (and (and (and (and (and (and (and (= x_33 4) x_20) (or (or ?v_156 x_3) ?v_162)) (or (or ?v_156 ?v_157) ?v_162)) (= x_28 ?v_154)) (= x_26 x_34)) (= x_27 x_35)) ?v_163)) (and (and (and (and (and (and (= x_33 5) ?v_148) ?v_149) x_16) ?v_159) ?v_160) ?v_163))) (or (or (or (or (or (and (and (and (and (and (and (and (and (and (= x_36 0) ?v_148) ?v_164) ?v_165) ?v_158) ?v_161) x_21) ?v_139) ?v_167) ?v_166) (and (and (and (and (and (and (and (= x_36 1) ?v_148) x_4) ?v_165) ?v_141) x_22) ?v_166) ?v_167)) (and (and (and (and (and (and (and (and (and (= x_36 2) ?v_148) ?v_164) x_5) x_26) ?v_161) x_21) x_22) ?v_167) ?v_166)) (and (and (and (and (and (and (and (and (= x_36 3) ?v_148) x_4) x_5) (not (< 0 1))) ?v_141) ?v_139) ?v_166) ?v_167)) (and (and (and (and (and (and (= x_36 4) x_20) (or (or ?v_164 x_5) ?v_162)) (or (or ?v_164 ?v_165) (<= ?v_154 2))) (= x_17 ?v_154)) ?v_168) ?v_166)) (and (and (and (and (and (and (= x_36 5) ?v_148) ?v_158) x_27) ?v_167) ?v_168) ?v_166))) (or (or (or (or (or (or (and (and ?v_7 x_118) (or x_115 ?v_30)) (and (and ?v_3 x_100) (or x_97 ?v_25))) (and (and ?v_37 x_82) (or x_79 ?v_55))) (and (and ?v_65 x_64) (or x_61 ?v_83))) (and (and ?v_93 x_46) (or x_43 ?v_111))) (and (and ?v_121 x_24) (or x_21 ?v_139))) (and (and ?v_146 x_1) (or x_4 ?v_165)))) (or ?v_152 ?v_149)) (or ?v_161 ?v_158)) (or (not x_32) (not x_31))) (or (not x_35) (not x_34))) (or ?v_124 ?v_120)) (or ?v_134 ?v_130)) (or ?v_96 ?v_92)) (or ?v_106 ?v_102)) (or ?v_68 ?v_64)) (or ?v_78 ?v_74)) (or ?v_40 ?v_36)) (or ?v_50 ?v_46)) (or ?v_6 ?v_2)) (or ?v_18 ?v_14))))))))))))))))
(check-sat)
(exit)
